SrTiO3                                
    3.975    
     1.000000000000000    0.0000000000000000   0.0000000000000000
     0.0000000000000000    1.000000000000000   0.0000000000000000
    0.0000000000000000    0.0000000000000000    1.000000000000000
   Sr   Ti   O 
     1     1     3
Direct
  0.0000000000000000  0.0000000000000000  0.0000000000000000
  0.5000000000000000  0.5000000000000000  0.5000000000000000
  0.0000000000000000  0.5000000000000000  0.5000000000000000
  0.5000000000000000  0.0000000000000000  0.5000000000000000
  0.5000000000000000  0.5000000000000000  0.0000000000000000
