Se1 Sn1  Pnma  lattice constant from pri
    1.000000000000000     
    11.3088615658598837    0.0000000000000000    0.0000000000000000
     0.0000000000000000    4.1194160860087665   -0.0000000000000013
     0.0000000000000000    0.0000000000000004    4.2998038987186629
   Sn   Se
     4     4
Direct
  0.1168927311363464  0.2500000000000000  0.0908027872013270
  0.8831072688636540  0.7500000000000000  0.9091972127986732
  0.3831072688636535  0.7500000000000000  0.5908027872013268
  0.6168927311363460  0.2500000000000000  0.4091972127986732
  0.8579862927601806  0.2500000000000000  0.4752652369705491
  0.1420137072398193  0.7500000000000000  0.5247347630294510
  0.6420137072398194  0.7500000000000000  0.9752652369705490
  0.3579862927601807  0.2500000000000000  0.0247347630294509
 
  0.00000000E+00  0.00000000E+00  0.00000000E+00
  0.00000000E+00  0.00000000E+00  0.00000000E+00
  0.00000000E+00  0.00000000E+00  0.00000000E+00
  0.00000000E+00  0.00000000E+00  0.00000000E+00
  0.00000000E+00  0.00000000E+00  0.00000000E+00
  0.00000000E+00  0.00000000E+00  0.00000000E+00
  0.00000000E+00  0.00000000E+00  0.00000000E+00
  0.00000000E+00  0.00000000E+00  0.00000000E+00
