Sn Se 
   1.0
    22.6177231317197673    0.0000000000000000    0.0000000000000000
     0.0000000000000000   16.4776643440350661   -0.0000000000000052
     0.0000000000000000    0.0000000000000016   17.1992155948746515
 128 128
Direct
  0.0584463655681732  0.0625000000000000  0.0227006968003318
  0.5584463655681732  0.0625000000000000  0.0227006968003318
  0.0584463655681732  0.3125000000000000  0.0227006968003318
  0.5584463655681732  0.3125000000000000  0.0227006968003318
  0.0584463655681732  0.5625000000000000  0.0227006968003318
  0.5584463655681732  0.5625000000000000  0.0227006968003318
  0.0584463655681732  0.8125000000000000  0.0227006968003318
  0.5584463655681732  0.8125000000000000  0.0227006968003318
  0.0584463655681732  0.0625000000000000  0.2727006968003318
  0.5584463655681732  0.0625000000000000  0.2727006968003318
  0.0584463655681732  0.3125000000000000  0.2727006968003318
  0.5584463655681732  0.3125000000000000  0.2727006968003318
  0.0584463655681732  0.5625000000000000  0.2727006968003318
  0.5584463655681732  0.5625000000000000  0.2727006968003318
  0.0584463655681732  0.8125000000000000  0.2727006968003318
  0.5584463655681732  0.8125000000000000  0.2727006968003318
  0.0584463655681732  0.0625000000000000  0.5227006968003317
  0.5584463655681732  0.0625000000000000  0.5227006968003317
  0.0584463655681732  0.3125000000000000  0.5227006968003317
  0.5584463655681732  0.3125000000000000  0.5227006968003317
  0.0584463655681732  0.5625000000000000  0.5227006968003317
  0.5584463655681732  0.5625000000000000  0.5227006968003317
  0.0584463655681732  0.8125000000000000  0.5227006968003317
  0.5584463655681732  0.8125000000000000  0.5227006968003317
  0.0584463655681732  0.0625000000000000  0.7727006968003317
  0.5584463655681732  0.0625000000000000  0.7727006968003317
  0.0584463655681732  0.3125000000000000  0.7727006968003317
  0.5584463655681732  0.3125000000000000  0.7727006968003317
  0.0584463655681732  0.5625000000000000  0.7727006968003317
  0.5584463655681732  0.5625000000000000  0.7727006968003317
  0.0584463655681732  0.8125000000000000  0.7727006968003317
  0.5584463655681732  0.8125000000000000  0.7727006968003317
  0.4415536344318270  0.1875000000000000  0.2272993031996683
  0.9415536344318269  0.1875000000000000  0.2272993031996683
  0.4415536344318270  0.4375000000000000  0.2272993031996683
  0.9415536344318269  0.4375000000000000  0.2272993031996683
  0.4415536344318270  0.6875000000000000  0.2272993031996683
  0.9415536344318269  0.6875000000000000  0.2272993031996683
  0.4415536344318270  0.9375000000000000  0.2272993031996683
  0.9415536344318269  0.9375000000000000  0.2272993031996683
  0.4415536344318270  0.1875000000000000  0.4772993031996683
  0.9415536344318269  0.1875000000000000  0.4772993031996683
  0.4415536344318270  0.4375000000000000  0.4772993031996683
  0.9415536344318269  0.4375000000000000  0.4772993031996683
  0.4415536344318270  0.6875000000000000  0.4772993031996683
  0.9415536344318269  0.6875000000000000  0.4772993031996683
  0.4415536344318270  0.9375000000000000  0.4772993031996683
  0.9415536344318269  0.9375000000000000  0.4772993031996683
  0.4415536344318270  0.1875000000000000  0.7272993031996683
  0.9415536344318269  0.1875000000000000  0.7272993031996683
  0.4415536344318270  0.4375000000000000  0.7272993031996683
  0.9415536344318269  0.4375000000000000  0.7272993031996683
  0.4415536344318270  0.6875000000000000  0.7272993031996683
  0.9415536344318269  0.6875000000000000  0.7272993031996683
  0.4415536344318270  0.9375000000000000  0.7272993031996683
  0.9415536344318269  0.9375000000000000  0.7272993031996683
  0.4415536344318270  0.1875000000000000  0.9772993031996683
  0.9415536344318269  0.1875000000000000  0.9772993031996683
  0.4415536344318270  0.4375000000000000  0.9772993031996683
  0.9415536344318269  0.4375000000000000  0.9772993031996683
  0.4415536344318270  0.6875000000000000  0.9772993031996683
  0.9415536344318269  0.6875000000000000  0.9772993031996683
  0.4415536344318270  0.9375000000000000  0.9772993031996683
  0.9415536344318269  0.9375000000000000  0.9772993031996683
  0.1915536344318267  0.1875000000000000  0.1477006968003317
  0.6915536344318267  0.1875000000000000  0.1477006968003317
  0.1915536344318267  0.4375000000000000  0.1477006968003317
  0.6915536344318267  0.4375000000000000  0.1477006968003317
  0.1915536344318267  0.6875000000000000  0.1477006968003317
  0.6915536344318267  0.6875000000000000  0.1477006968003317
  0.1915536344318267  0.9375000000000000  0.1477006968003317
  0.6915536344318267  0.9375000000000000  0.1477006968003317
  0.1915536344318267  0.1875000000000000  0.3977006968003317
  0.6915536344318267  0.1875000000000000  0.3977006968003317
  0.1915536344318267  0.4375000000000000  0.3977006968003317
  0.6915536344318267  0.4375000000000000  0.3977006968003317
  0.1915536344318267  0.6875000000000000  0.3977006968003317
  0.6915536344318267  0.6875000000000000  0.3977006968003317
  0.1915536344318267  0.9375000000000000  0.3977006968003317
  0.6915536344318267  0.9375000000000000  0.3977006968003317
  0.1915536344318267  0.1875000000000000  0.6477006968003317
  0.6915536344318267  0.1875000000000000  0.6477006968003317
  0.1915536344318267  0.4375000000000000  0.6477006968003317
  0.6915536344318267  0.4375000000000000  0.6477006968003317
  0.1915536344318267  0.6875000000000000  0.6477006968003317
  0.6915536344318267  0.6875000000000000  0.6477006968003317
  0.1915536344318267  0.9375000000000000  0.6477006968003317
  0.6915536344318267  0.9375000000000000  0.6477006968003317
  0.1915536344318267  0.1875000000000000  0.8977006968003317
  0.6915536344318267  0.1875000000000000  0.8977006968003317
  0.1915536344318267  0.4375000000000000  0.8977006968003317
  0.6915536344318267  0.4375000000000000  0.8977006968003317
  0.1915536344318267  0.6875000000000000  0.8977006968003317
  0.6915536344318267  0.6875000000000000  0.8977006968003317
  0.1915536344318267  0.9375000000000000  0.8977006968003317
  0.6915536344318267  0.9375000000000000  0.8977006968003317
  0.3084463655681730  0.0625000000000000  0.1022993031996683
  0.8084463655681731  0.0625000000000000  0.1022993031996683
  0.3084463655681730  0.3125000000000000  0.1022993031996683
  0.8084463655681731  0.3125000000000000  0.1022993031996683
  0.3084463655681730  0.5625000000000000  0.1022993031996683
  0.8084463655681731  0.5625000000000000  0.1022993031996683
  0.3084463655681730  0.8125000000000000  0.1022993031996683
  0.8084463655681731  0.8125000000000000  0.1022993031996683
  0.3084463655681730  0.0625000000000000  0.3522993031996683
  0.8084463655681731  0.0625000000000000  0.3522993031996683
  0.3084463655681730  0.3125000000000000  0.3522993031996683
  0.8084463655681731  0.3125000000000000  0.3522993031996683
  0.3084463655681730  0.5625000000000000  0.3522993031996683
  0.8084463655681731  0.5625000000000000  0.3522993031996683
  0.3084463655681730  0.8125000000000000  0.3522993031996683
  0.8084463655681731  0.8125000000000000  0.3522993031996683
  0.3084463655681730  0.0625000000000000  0.6022993031996683
  0.8084463655681731  0.0625000000000000  0.6022993031996683
  0.3084463655681730  0.3125000000000000  0.6022993031996683
  0.8084463655681731  0.3125000000000000  0.6022993031996683
  0.3084463655681730  0.5625000000000000  0.6022993031996683
  0.8084463655681731  0.5625000000000000  0.6022993031996683
  0.3084463655681730  0.8125000000000000  0.6022993031996683
  0.8084463655681731  0.8125000000000000  0.6022993031996683
  0.3084463655681730  0.0625000000000000  0.8522993031996683
  0.8084463655681731  0.0625000000000000  0.8522993031996683
  0.3084463655681730  0.3125000000000000  0.8522993031996683
  0.8084463655681731  0.3125000000000000  0.8522993031996683
  0.3084463655681730  0.5625000000000000  0.8522993031996683
  0.8084463655681731  0.5625000000000000  0.8522993031996683
  0.3084463655681730  0.8125000000000000  0.8522993031996683
  0.8084463655681731  0.8125000000000000  0.8522993031996683
  0.4289931463800903  0.0625000000000000  0.1188163092426373
  0.9289931463800902  0.0625000000000000  0.1188163092426373
  0.4289931463800903  0.3125000000000000  0.1188163092426373
  0.9289931463800902  0.3125000000000000  0.1188163092426373
  0.4289931463800903  0.5625000000000000  0.1188163092426373
  0.9289931463800902  0.5625000000000000  0.1188163092426373
  0.4289931463800903  0.8125000000000000  0.1188163092426373
  0.9289931463800902  0.8125000000000000  0.1188163092426373
  0.4289931463800903  0.0625000000000000  0.3688163092426373
  0.9289931463800902  0.0625000000000000  0.3688163092426373
  0.4289931463800903  0.3125000000000000  0.3688163092426373
  0.9289931463800902  0.3125000000000000  0.3688163092426373
  0.4289931463800903  0.5625000000000000  0.3688163092426373
  0.9289931463800902  0.5625000000000000  0.3688163092426373
  0.4289931463800903  0.8125000000000000  0.3688163092426373
  0.9289931463800902  0.8125000000000000  0.3688163092426373
  0.4289931463800903  0.0625000000000000  0.6188163092426373
  0.9289931463800902  0.0625000000000000  0.6188163092426373
  0.4289931463800903  0.3125000000000000  0.6188163092426373
  0.9289931463800902  0.3125000000000000  0.6188163092426373
  0.4289931463800903  0.5625000000000000  0.6188163092426373
  0.9289931463800902  0.5625000000000000  0.6188163092426373
  0.4289931463800903  0.8125000000000000  0.6188163092426373
  0.9289931463800902  0.8125000000000000  0.6188163092426373
  0.4289931463800903  0.0625000000000000  0.8688163092426373
  0.9289931463800902  0.0625000000000000  0.8688163092426373
  0.4289931463800903  0.3125000000000000  0.8688163092426373
  0.9289931463800902  0.3125000000000000  0.8688163092426373
  0.4289931463800903  0.5625000000000000  0.8688163092426373
  0.9289931463800902  0.5625000000000000  0.8688163092426373
  0.4289931463800903  0.8125000000000000  0.8688163092426373
  0.9289931463800902  0.8125000000000000  0.8688163092426373
  0.0710068536199096  0.1875000000000000  0.1311836907573627
  0.5710068536199097  0.1875000000000000  0.1311836907573627
  0.0710068536199096  0.4375000000000000  0.1311836907573627
  0.5710068536199097  0.4375000000000000  0.1311836907573627
  0.0710068536199096  0.6875000000000000  0.1311836907573627
  0.5710068536199097  0.6875000000000000  0.1311836907573627
  0.0710068536199096  0.9375000000000000  0.1311836907573627
  0.5710068536199097  0.9375000000000000  0.1311836907573627
  0.0710068536199096  0.1875000000000000  0.3811836907573627
  0.5710068536199097  0.1875000000000000  0.3811836907573627
  0.0710068536199096  0.4375000000000000  0.3811836907573627
  0.5710068536199097  0.4375000000000000  0.3811836907573627
  0.0710068536199096  0.6875000000000000  0.3811836907573627
  0.5710068536199097  0.6875000000000000  0.3811836907573627
  0.0710068536199096  0.9375000000000000  0.3811836907573627
  0.5710068536199097  0.9375000000000000  0.3811836907573627
  0.0710068536199096  0.1875000000000000  0.6311836907573627
  0.5710068536199097  0.1875000000000000  0.6311836907573627
  0.0710068536199096  0.4375000000000000  0.6311836907573627
  0.5710068536199097  0.4375000000000000  0.6311836907573627
  0.0710068536199096  0.6875000000000000  0.6311836907573627
  0.5710068536199097  0.6875000000000000  0.6311836907573627
  0.0710068536199096  0.9375000000000000  0.6311836907573627
  0.5710068536199097  0.9375000000000000  0.6311836907573627
  0.0710068536199096  0.1875000000000000  0.8811836907573627
  0.5710068536199097  0.1875000000000000  0.8811836907573627
  0.0710068536199096  0.4375000000000000  0.8811836907573627
  0.5710068536199097  0.4375000000000000  0.8811836907573627
  0.0710068536199096  0.6875000000000000  0.8811836907573627
  0.5710068536199097  0.6875000000000000  0.8811836907573627
  0.0710068536199096  0.9375000000000000  0.8811836907573627
  0.5710068536199097  0.9375000000000000  0.8811836907573627
  0.3210068536199097  0.1875000000000000  0.2438163092426373
  0.8210068536199098  0.1875000000000000  0.2438163092426373
  0.3210068536199097  0.4375000000000000  0.2438163092426373
  0.8210068536199098  0.4375000000000000  0.2438163092426373
  0.3210068536199097  0.6875000000000000  0.2438163092426373
  0.8210068536199098  0.6875000000000000  0.2438163092426373
  0.3210068536199097  0.9375000000000000  0.2438163092426373
  0.8210068536199098  0.9375000000000000  0.2438163092426373
  0.3210068536199097  0.1875000000000000  0.4938163092426373
  0.8210068536199098  0.1875000000000000  0.4938163092426373
  0.3210068536199097  0.4375000000000000  0.4938163092426373
  0.8210068536199098  0.4375000000000000  0.4938163092426373
  0.3210068536199097  0.6875000000000000  0.4938163092426373
  0.8210068536199098  0.6875000000000000  0.4938163092426373
  0.3210068536199097  0.9375000000000000  0.4938163092426373
  0.8210068536199098  0.9375000000000000  0.4938163092426373
  0.3210068536199097  0.1875000000000000  0.7438163092426373
  0.8210068536199098  0.1875000000000000  0.7438163092426373
  0.3210068536199097  0.4375000000000000  0.7438163092426373
  0.8210068536199098  0.4375000000000000  0.7438163092426373
  0.3210068536199097  0.6875000000000000  0.7438163092426373
  0.8210068536199098  0.6875000000000000  0.7438163092426373
  0.3210068536199097  0.9375000000000000  0.7438163092426373
  0.8210068536199098  0.9375000000000000  0.7438163092426373
  0.3210068536199097  0.1875000000000000  0.9938163092426373
  0.8210068536199098  0.1875000000000000  0.9938163092426373
  0.3210068536199097  0.4375000000000000  0.9938163092426373
  0.8210068536199098  0.4375000000000000  0.9938163092426373
  0.3210068536199097  0.6875000000000000  0.9938163092426373
  0.8210068536199098  0.6875000000000000  0.9938163092426373
  0.3210068536199097  0.9375000000000000  0.9938163092426373
  0.8210068536199098  0.9375000000000000  0.9938163092426373
  0.1789931463800903  0.0625000000000000  0.0061836907573627
  0.6789931463800903  0.0625000000000000  0.0061836907573627
  0.1789931463800903  0.3125000000000000  0.0061836907573627
  0.6789931463800903  0.3125000000000000  0.0061836907573627
  0.1789931463800903  0.5625000000000000  0.0061836907573627
  0.6789931463800903  0.5625000000000000  0.0061836907573627
  0.1789931463800903  0.8125000000000000  0.0061836907573627
  0.6789931463800903  0.8125000000000000  0.0061836907573627
  0.1789931463800903  0.0625000000000000  0.2561836907573627
  0.6789931463800903  0.0625000000000000  0.2561836907573627
  0.1789931463800903  0.3125000000000000  0.2561836907573627
  0.6789931463800903  0.3125000000000000  0.2561836907573627
  0.1789931463800903  0.5625000000000000  0.2561836907573627
  0.6789931463800903  0.5625000000000000  0.2561836907573627
  0.1789931463800903  0.8125000000000000  0.2561836907573627
  0.6789931463800903  0.8125000000000000  0.2561836907573627
  0.1789931463800903  0.0625000000000000  0.5061836907573627
  0.6789931463800903  0.0625000000000000  0.5061836907573627
  0.1789931463800903  0.3125000000000000  0.5061836907573627
  0.6789931463800903  0.3125000000000000  0.5061836907573627
  0.1789931463800903  0.5625000000000000  0.5061836907573627
  0.6789931463800903  0.5625000000000000  0.5061836907573627
  0.1789931463800903  0.8125000000000000  0.5061836907573627
  0.6789931463800903  0.8125000000000000  0.5061836907573627
  0.1789931463800903  0.0625000000000000  0.7561836907573627
  0.6789931463800903  0.0625000000000000  0.7561836907573627
  0.1789931463800903  0.3125000000000000  0.7561836907573627
  0.6789931463800903  0.3125000000000000  0.7561836907573627
  0.1789931463800903  0.5625000000000000  0.7561836907573627
  0.6789931463800903  0.5625000000000000  0.7561836907573627
  0.1789931463800903  0.8125000000000000  0.7561836907573627
  0.6789931463800903  0.8125000000000000  0.7561836907573627
