M1-VO2-34033.cif                        
   1.00000000000000     
     5.6467613524384213    0.0000000000000000   -0.0089187928768647
     0.0000000000000000    4.5968412561782150    0.0000000000000000
    -2.8575101928959090    0.0000000000000000    4.5986867576988582
   V    O 
     4     8
Direct
  0.2341145411318512  0.5250369602959417  0.5276219016017203
  0.2341145411318512  0.9749630397040583  0.0276219016017203
  0.7658854588681488  0.0250369602959489  0.9723780983982797
  0.7658854588681488  0.4749630397040511  0.4723780983982797
  0.1125402627217893  0.2845718450610691  0.7113864634098673
  0.1125402627217893  0.2154281549389309  0.2113864634098673
  0.8874597372782107  0.7845718450610690  0.7886135365901327
  0.8874597372782107  0.7154281549389310  0.2886135365901327
  0.4022474571786900  0.7992216465610935  0.7962760726266329
  0.4022474571786900  0.7007783534389065  0.2962760726266329
  0.5977525428213100  0.2992216465610936  0.7037239273733671
  0.5977525428213100  0.2007783534389064  0.2037239273733671
 
  0.00000000E+00  0.00000000E+00  0.00000000E+00
  0.00000000E+00  0.00000000E+00  0.00000000E+00
  0.00000000E+00  0.00000000E+00  0.00000000E+00
  0.00000000E+00  0.00000000E+00  0.00000000E+00
  0.00000000E+00  0.00000000E+00  0.00000000E+00
  0.00000000E+00  0.00000000E+00  0.00000000E+00
  0.00000000E+00  0.00000000E+00  0.00000000E+00
  0.00000000E+00  0.00000000E+00  0.00000000E+00
  0.00000000E+00  0.00000000E+00  0.00000000E+00
  0.00000000E+00  0.00000000E+00  0.00000000E+00
  0.00000000E+00  0.00000000E+00  0.00000000E+00
  0.00000000E+00  0.00000000E+00  0.00000000E+00
