V O 
   1.0
    11.2935227048768425    0.0000000000000000   -0.0178375857537294
     0.0000000000000000    9.1936825123564301    0.0000000000000000
    -5.7150203857918180    0.0000000000000000    9.1973735153977163
  32  64
Direct
  0.1170572705659256  0.2625184801479709  0.2638109508008601
  0.6170572705659256  0.2625184801479709  0.2638109508008601
  0.1170572705659256  0.7625184801479709  0.2638109508008601
  0.6170572705659256  0.7625184801479709  0.2638109508008601
  0.1170572705659256  0.2625184801479709  0.7638109508008601
  0.6170572705659256  0.2625184801479709  0.7638109508008601
  0.1170572705659256  0.7625184801479709  0.7638109508008601
  0.6170572705659256  0.7625184801479709  0.7638109508008601
  0.1170572705659256  0.4874815198520291  0.0138109508008601
  0.6170572705659256  0.4874815198520291  0.0138109508008601
  0.1170572705659256  0.9874815198520291  0.0138109508008601
  0.6170572705659256  0.9874815198520291  0.0138109508008601
  0.1170572705659256  0.4874815198520291  0.5138109508008601
  0.6170572705659256  0.4874815198520291  0.5138109508008601
  0.1170572705659256  0.9874815198520291  0.5138109508008601
  0.6170572705659256  0.9874815198520291  0.5138109508008601
  0.3829427294340744  0.0125184801479745  0.4861890491991399
  0.8829427294340744  0.0125184801479745  0.4861890491991399
  0.3829427294340744  0.5125184801479744  0.4861890491991399
  0.8829427294340744  0.5125184801479744  0.4861890491991399
  0.3829427294340744  0.0125184801479745  0.9861890491991399
  0.8829427294340744  0.0125184801479745  0.9861890491991399
  0.3829427294340744  0.5125184801479744  0.9861890491991399
  0.8829427294340744  0.5125184801479744  0.9861890491991399
  0.3829427294340744  0.2374815198520256  0.2361890491991399
  0.8829427294340744  0.2374815198520256  0.2361890491991399
  0.3829427294340744  0.7374815198520256  0.2361890491991399
  0.8829427294340744  0.7374815198520256  0.2361890491991399
  0.3829427294340744  0.2374815198520256  0.7361890491991399
  0.8829427294340744  0.2374815198520256  0.7361890491991399
  0.3829427294340744  0.7374815198520256  0.7361890491991399
  0.8829427294340744  0.7374815198520256  0.7361890491991399
  0.0562701313608946  0.1422859225305345  0.3556932317049337
  0.5562701313608946  0.1422859225305345  0.3556932317049337
  0.0562701313608946  0.6422859225305345  0.3556932317049337
  0.5562701313608946  0.6422859225305345  0.3556932317049337
  0.0562701313608946  0.1422859225305345  0.8556932317049337
  0.5562701313608946  0.1422859225305345  0.8556932317049337
  0.0562701313608946  0.6422859225305345  0.8556932317049337
  0.5562701313608946  0.6422859225305345  0.8556932317049337
  0.0562701313608946  0.1077140774694654  0.1056932317049337
  0.5562701313608946  0.1077140774694654  0.1056932317049337
  0.0562701313608946  0.6077140774694655  0.1056932317049337
  0.5562701313608946  0.6077140774694655  0.1056932317049337
  0.0562701313608946  0.1077140774694654  0.6056932317049336
  0.5562701313608946  0.1077140774694654  0.6056932317049336
  0.0562701313608946  0.6077140774694655  0.6056932317049336
  0.5562701313608946  0.6077140774694655  0.6056932317049336
  0.4437298686391054  0.3922859225305345  0.3943067682950663
  0.9437298686391054  0.3922859225305345  0.3943067682950663
  0.4437298686391054  0.8922859225305345  0.3943067682950663
  0.9437298686391054  0.8922859225305345  0.3943067682950663
  0.4437298686391054  0.3922859225305345  0.8943067682950663
  0.9437298686391054  0.3922859225305345  0.8943067682950663
  0.4437298686391054  0.8922859225305345  0.8943067682950663
  0.9437298686391054  0.8922859225305345  0.8943067682950663
  0.4437298686391054  0.3577140774694655  0.1443067682950664
  0.9437298686391054  0.3577140774694655  0.1443067682950664
  0.4437298686391054  0.8577140774694655  0.1443067682950664
  0.9437298686391054  0.8577140774694655  0.1443067682950664
  0.4437298686391054  0.3577140774694655  0.6443067682950664
  0.9437298686391054  0.3577140774694655  0.6443067682950664
  0.4437298686391054  0.8577140774694655  0.6443067682950664
  0.9437298686391054  0.8577140774694655  0.6443067682950664
  0.2011237285893450  0.3996108232805468  0.3981380363133165
  0.7011237285893450  0.3996108232805468  0.3981380363133165
  0.2011237285893450  0.8996108232805468  0.3981380363133165
  0.7011237285893450  0.8996108232805468  0.3981380363133165
  0.2011237285893450  0.3996108232805468  0.8981380363133165
  0.7011237285893450  0.3996108232805468  0.8981380363133165
  0.2011237285893450  0.8996108232805468  0.8981380363133165
  0.7011237285893450  0.8996108232805468  0.8981380363133165
  0.2011237285893450  0.3503891767194532  0.1481380363133165
  0.7011237285893450  0.3503891767194532  0.1481380363133165
  0.2011237285893450  0.8503891767194532  0.1481380363133165
  0.7011237285893450  0.8503891767194532  0.1481380363133165
  0.2011237285893450  0.3503891767194532  0.6481380363133165
  0.7011237285893450  0.3503891767194532  0.6481380363133165
  0.2011237285893450  0.8503891767194532  0.6481380363133165
  0.7011237285893450  0.8503891767194532  0.6481380363133165
  0.2988762714106550  0.1496108232805468  0.3518619636866835
  0.7988762714106550  0.1496108232805468  0.3518619636866835
  0.2988762714106550  0.6496108232805469  0.3518619636866835
  0.7988762714106550  0.6496108232805469  0.3518619636866835
  0.2988762714106550  0.1496108232805468  0.8518619636866835
  0.7988762714106550  0.1496108232805468  0.8518619636866835
  0.2988762714106550  0.6496108232805469  0.8518619636866835
  0.7988762714106550  0.6496108232805469  0.8518619636866835
  0.2988762714106550  0.1003891767194532  0.1018619636866835
  0.7988762714106550  0.1003891767194532  0.1018619636866835
  0.2988762714106550  0.6003891767194532  0.1018619636866835
  0.7988762714106550  0.6003891767194532  0.1018619636866835
  0.2988762714106550  0.1003891767194532  0.6018619636866835
  0.7988762714106550  0.1003891767194532  0.6018619636866835
  0.2988762714106550  0.6003891767194532  0.6018619636866835
  0.7988762714106550  0.6003891767194532  0.6018619636866835
