  VO2                                   
   1.00000000000000     
     4.5556080000000003    0.0000000000000000    0.0000000000000000
     0.0000000000000000    4.5556080000000003    0.0000000000000000
     0.0000000000000000    0.0000000000000000    2.8560449999999999
   V    O 
     2     4
Direct
  0.0000000000000000  0.0000000000000000  0.0000000000000000
  0.5000000000000000  0.5000000000000000  0.5000000000000000
  .2977303723392355  .2977303723392355  0.0000000000000000
  .7022696276607645  .7022696276607645  0.0000000000000000
  .2022696276607645  .7977303723392355  0.5000000000000000
  .7977303723392355  .2022696276607645  0.5000000000000000

  0.00000000E+00  0.00000000E+00  0.00000000E+00
  0.00000000E+00  0.00000000E+00  0.00000000E+00
  0.00000000E+00  0.00000000E+00  0.00000000E+00
  0.00000000E+00  0.00000000E+00  0.00000000E+00
  0.00000000E+00  0.00000000E+00  0.00000000E+00
  0.00000000E+00  0.00000000E+00  0.00000000E+00
