V O 
   1.0
     9.1112160000000006    0.0000000000000000    0.0000000000000000
     0.0000000000000000    9.1112160000000006    0.0000000000000000
     0.0000000000000000    0.0000000000000000   14.2802249999999997
  40  80
Direct
  0.0000000000000000  0.0000000000000000  0.0000000000000000
  0.5000000000000000  0.0000000000000000  0.0000000000000000
  0.0000000000000000  0.5000000000000000  0.0000000000000000
  0.5000000000000000  0.5000000000000000  0.0000000000000000
  0.0000000000000000  0.0000000000000000  0.2000000000000000
  0.5000000000000000  0.0000000000000000  0.2000000000000000
  0.0000000000000000  0.5000000000000000  0.2000000000000000
  0.5000000000000000  0.5000000000000000  0.2000000000000000
  0.0000000000000000  0.0000000000000000  0.4000000000000000
  0.5000000000000000  0.0000000000000000  0.4000000000000000
  0.0000000000000000  0.5000000000000000  0.4000000000000000
  0.5000000000000000  0.5000000000000000  0.4000000000000000
  0.0000000000000000  0.0000000000000000  0.6000000000000000
  0.5000000000000000  0.0000000000000000  0.6000000000000000
  0.0000000000000000  0.5000000000000000  0.6000000000000000
  0.5000000000000000  0.5000000000000000  0.6000000000000000
  0.0000000000000000  0.0000000000000000  0.8000000000000000
  0.5000000000000000  0.0000000000000000  0.8000000000000000
  0.0000000000000000  0.5000000000000000  0.8000000000000000
  0.5000000000000000  0.5000000000000000  0.8000000000000000
  0.2500000000000000  0.2500000000000000  0.1000000000000000
  0.7500000000000000  0.2500000000000000  0.1000000000000000
  0.2500000000000000  0.7500000000000000  0.1000000000000000
  0.7500000000000000  0.7500000000000000  0.1000000000000000
  0.2500000000000000  0.2500000000000000  0.3000000000000000
  0.7500000000000000  0.2500000000000000  0.3000000000000000
  0.2500000000000000  0.7500000000000000  0.3000000000000000
  0.7500000000000000  0.7500000000000000  0.3000000000000000
  0.2500000000000000  0.2500000000000000  0.5000000000000000
  0.7500000000000000  0.2500000000000000  0.5000000000000000
  0.2500000000000000  0.7500000000000000  0.5000000000000000
  0.7500000000000000  0.7500000000000000  0.5000000000000000
  0.2500000000000000  0.2500000000000000  0.7000000000000000
  0.7500000000000000  0.2500000000000000  0.7000000000000000
  0.2500000000000000  0.7500000000000000  0.7000000000000000
  0.7500000000000000  0.7500000000000000  0.7000000000000000
  0.2500000000000000  0.2500000000000000  0.9000000000000000
  0.7500000000000000  0.2500000000000000  0.9000000000000000
  0.2500000000000000  0.7500000000000000  0.9000000000000000
  0.7500000000000000  0.7500000000000000  0.9000000000000000
  0.1488651861696177  0.1488651861696177  0.0000000000000000
  0.6488651861696177  0.1488651861696177  0.0000000000000000
  0.1488651861696177  0.6488651861696177  0.0000000000000000
  0.6488651861696177  0.6488651861696177  0.0000000000000000
  0.1488651861696177  0.1488651861696177  0.2000000000000000
  0.6488651861696177  0.1488651861696177  0.2000000000000000
  0.1488651861696177  0.6488651861696177  0.2000000000000000
  0.6488651861696177  0.6488651861696177  0.2000000000000000
  0.1488651861696177  0.1488651861696177  0.4000000000000000
  0.6488651861696177  0.1488651861696177  0.4000000000000000
  0.1488651861696177  0.6488651861696177  0.4000000000000000
  0.6488651861696177  0.6488651861696177  0.4000000000000000
  0.1488651861696177  0.1488651861696177  0.6000000000000000
  0.6488651861696177  0.1488651861696177  0.6000000000000000
  0.1488651861696177  0.6488651861696177  0.6000000000000000
  0.6488651861696177  0.6488651861696177  0.6000000000000000
  0.1488651861696177  0.1488651861696177  0.8000000000000000
  0.6488651861696177  0.1488651861696177  0.8000000000000000
  0.1488651861696177  0.6488651861696177  0.8000000000000000
  0.6488651861696177  0.6488651861696177  0.8000000000000000
  0.3511348138303823  0.3511348138303823  0.0000000000000000
  0.8511348138303823  0.3511348138303823  0.0000000000000000
  0.3511348138303823  0.8511348138303823  0.0000000000000000
  0.8511348138303823  0.8511348138303823  0.0000000000000000
  0.3511348138303823  0.3511348138303823  0.2000000000000000
  0.8511348138303823  0.3511348138303823  0.2000000000000000
  0.3511348138303823  0.8511348138303823  0.2000000000000000
  0.8511348138303823  0.8511348138303823  0.2000000000000000
  0.3511348138303823  0.3511348138303823  0.4000000000000000
  0.8511348138303823  0.3511348138303823  0.4000000000000000
  0.3511348138303823  0.8511348138303823  0.4000000000000000
  0.8511348138303823  0.8511348138303823  0.4000000000000000
  0.3511348138303823  0.3511348138303823  0.6000000000000000
  0.8511348138303823  0.3511348138303823  0.6000000000000000
  0.3511348138303823  0.8511348138303823  0.6000000000000000
  0.8511348138303823  0.8511348138303823  0.6000000000000000
  0.3511348138303823  0.3511348138303823  0.8000000000000000
  0.8511348138303823  0.3511348138303823  0.8000000000000000
  0.3511348138303823  0.8511348138303823  0.8000000000000000
  0.8511348138303823  0.8511348138303823  0.8000000000000000
  0.1011348138303823  0.3988651861696177  0.1000000000000000
  0.6011348138303823  0.3988651861696177  0.1000000000000000
  0.1011348138303823  0.8988651861696177  0.1000000000000000
  0.6011348138303823  0.8988651861696177  0.1000000000000000
  0.1011348138303823  0.3988651861696177  0.3000000000000000
  0.6011348138303823  0.3988651861696177  0.3000000000000000
  0.1011348138303823  0.8988651861696177  0.3000000000000000
  0.6011348138303823  0.8988651861696177  0.3000000000000000
  0.1011348138303823  0.3988651861696177  0.5000000000000000
  0.6011348138303823  0.3988651861696177  0.5000000000000000
  0.1011348138303823  0.8988651861696177  0.5000000000000000
  0.6011348138303823  0.8988651861696177  0.5000000000000000
  0.1011348138303823  0.3988651861696177  0.7000000000000000
  0.6011348138303823  0.3988651861696177  0.7000000000000000
  0.1011348138303823  0.8988651861696177  0.7000000000000000
  0.6011348138303823  0.8988651861696177  0.7000000000000000
  0.1011348138303823  0.3988651861696177  0.9000000000000000
  0.6011348138303823  0.3988651861696177  0.9000000000000000
  0.1011348138303823  0.8988651861696177  0.9000000000000000
  0.6011348138303823  0.8988651861696177  0.9000000000000000
  0.3988651861696177  0.1011348138303823  0.1000000000000000
  0.8988651861696177  0.1011348138303823  0.1000000000000000
  0.3988651861696177  0.6011348138303823  0.1000000000000000
  0.8988651861696177  0.6011348138303823  0.1000000000000000
  0.3988651861696177  0.1011348138303823  0.3000000000000000
  0.8988651861696177  0.1011348138303823  0.3000000000000000
  0.3988651861696177  0.6011348138303823  0.3000000000000000
  0.8988651861696177  0.6011348138303823  0.3000000000000000
  0.3988651861696177  0.1011348138303823  0.5000000000000000
  0.8988651861696177  0.1011348138303823  0.5000000000000000
  0.3988651861696177  0.6011348138303823  0.5000000000000000
  0.8988651861696177  0.6011348138303823  0.5000000000000000
  0.3988651861696177  0.1011348138303823  0.7000000000000000
  0.8988651861696177  0.1011348138303823  0.7000000000000000
  0.3988651861696177  0.6011348138303823  0.7000000000000000
  0.8988651861696177  0.6011348138303823  0.7000000000000000
  0.3988651861696177  0.1011348138303823  0.9000000000000000
  0.8988651861696177  0.1011348138303823  0.9000000000000000
  0.3988651861696177  0.6011348138303823  0.9000000000000000
  0.8988651861696177  0.6011348138303823  0.9000000000000000
